GLPSOL--GLPK LP/MIP Solver 5.0
Parameter(s) specified in the command line:
 --lp ../modeles/5_329.lp --log 5_329.log
Reading problem data from '../modeles/5_329.lp'...
1666 rows, 3300 columns, 11540 non-zeros
1645 integer variables, all of which are binary
4977 lines were read
GLPK Integer Optimizer 5.0
1666 rows, 3300 columns, 11540 non-zeros
1645 integer variables, all of which are binary
Preprocessing...
1630 constraint coefficient(s) were reduced
1666 rows, 3295 columns, 11535 non-zeros
1645 integer variables, all of which are binary
Scaling...
 A: min|aij| =  3.695e-05  max|aij| =  4.000e+00  ratio =  1.082e+05
GM: min|aij| =  5.513e-02  max|aij| =  1.814e+01  ratio =  3.290e+02
EQ: min|aij| =  3.040e-03  max|aij| =  1.000e+00  ratio =  3.290e+02
2N: min|aij| =  2.365e-03  max|aij| =  1.774e+00  ratio =  7.502e+02
Constructing initial basis...
Size of triangular part is 1666
Solving LP relaxation...
GLPK Simplex Optimizer 5.0
1666 rows, 3295 columns, 11535 non-zeros
      0: obj =   1.000000000e+01 inf =   2.450e+01 (11)
     94: obj =   4.999122321e-01 inf =   0.000e+00 (0)
*   319: obj =  -2.235901175e+00 inf =   8.302e-16 (0)
OPTIMAL LP SOLUTION FOUND
Integer optimization begins...
Long-step dual simplex will be used
+   319: mip =     not found yet >=              -inf        (1; 0)
+  1073: >>>>>  -2.235901175e+00 >=  -2.235901175e+00 < 0.1% (751; 0)
+  1073: mip =  -2.235901175e+00 >=     tree is empty   0.0% (0; 1501)
INTEGER OPTIMAL SOLUTION FOUND
Time used:   1.7 secs
Memory used: 4.9 Mb (5186285 bytes)
